\ LP format - for model browsing. Use MPS format to capture full model detail.
Maximize
  46.8 z1 + 24 z2 + 40.8 z3 + 14 z4 + 25.6 z5 + 22.8 z6 + 19 z7 + 10.4 z8
   + 18 z9 + 31.6 z10 + 12.4 z11 + 45.2 z12 + 19.6 z13 + 31.6 z14
   + 40.8 z15 + 38 z16 + 36 z17 + 41 z18 + 48 z19 + 39.2 z20
Subject To
 constraint1: 47 z1 + 24 z2 + 41 z3 + 14 z4 + 26 z5 + 23 z6 + 19 z7 + 11 z8
   + 18 z9 + 33 z10 + 13 z11 + 46 z12 + 20 z13 + 32 z14 + 41 z15 + 39 z16
   + 36 z17 + 41 z18 + 48 z19 + 40 z20 <= 200
 constraints2_4_&_7: z4 - z7 = 0
 constraints2_7_&_18: z7 - z18 = 0
 constraints2_11_&_19: z11 - z19 = 0
 constraints2_16_&_17: z16 - z17 = 0
 constraints3_1_|_4: z1 + z4 <= 1
 constraints3_1_|_9: z1 + z9 <= 1
 constraints3_1_|_15: z1 + z15 <= 1
 constraints3_3_|_4: z3 + z4 <= 1
 constraints3_3_|_7: z3 + z7 <= 1
 constraints3_4_|_5: z4 + z5 <= 1
 constraints3_4_|_11: z4 + z11 <= 1
 constraints3_4_|_16: z4 + z16 <= 1
 constraints3_4_|_17: z4 + z17 <= 1
 constraints3_4_|_20: z4 + z20 <= 1
 constraints3_5_|_15: z5 + z15 <= 1
 constraints3_6_|_9: z6 + z9 <= 1
 constraints3_7_|_11: z7 + z11 <= 1
 constraints3_7_|_16: z7 + z16 <= 1
 constraints3_7_|_17: z7 + z17 <= 1
 constraints3_7_|_20: z7 + z20 <= 1
 constraints3_9_|_14: z9 + z14 <= 1
 constraints3_11_|_16: z11 + z16 <= 1
 constraints3_11_|_18: z11 + z18 <= 1
 constraints3_12_|_15: z12 + z15 <= 1
 constraints3_15_|_16: z15 + z16 <= 1
 constraints3_18_|_20: z18 + z20 <= 1
Bounds
Binaries
 z1 z2 z3 z4 z5 z6 z7 z8 z9 z10 z11 z12 z13 z14 z15 z16 z17 z18 z19 z20
End
